Geographic Exponential Decay
20 205 200 201 265 192 27 259 145 53 127 55 171 225 273 214 269 209 236 12 231
p edge 320 1176
e 0 268 35.0
e 0 104 5.0
e 1 87 2.0
e 1 238 2.0
e 2 143 2.0
e 2 160 1.0
e 3 160 1.0
e 3 312 14.0
e 4 192 34.0
e 4 12 73.0
e 5 172 2.0
e 5 105 4.0
e 6 40 1.0
e 6 223 12.0
e 7 35 3.0
e 7 88 1.0
e 8 269 89.0
e 8 10 1.0
e 9 46 17.0
e 9 170 5.0
e 9 0 2.0
e 10 38 2.0
e 11 61 2.0
e 11 12 16.0
e 12 216 60.0
e 12 114 28.0
e 12 28 53.0
e 12 109 100.0
e 12 204 83.0
e 12 37 15.0
e 12 62 74.0
e 12 64 77.0
e 12 134 69.0
e 12 181 68.0
e 12 229 29.0
e 12 309 85.0
e 12 231 43.0
e 12 307 95.0
e 12 84 39.0
e 12 65 57.0
e 12 263 31.0
e 12 224 64.0
e 12 253 58.0
e 12 119 90.0
e 12 251 25.0
e 12 24 76.0
e 12 318 69.0
e 12 279 94.0
e 12 51 92.0
e 12 217 52.0
e 12 314 73.0
e 12 267 42.0
e 12 156 23.0
e 12 130 34.0
e 12 30 73.0
e 12 132 74.0
e 12 57 7.0
e 12 167 86.0
e 12 61 66.0
e 13 193 3.0
e 13 231 83.0
e 14 180 1.0
e 14 113 1.0
e 15 253 3.0
e 15 32 3.0
e 16 108 10.0
e 16 189 2.0
e 16 197 6.0
e 16 177 4.0
e 16 306 12.0
e 17 303 3.0
e 17 264 2.0
e 18 211 6.0
e 18 134 2.0
e 19 106 1.0
e 19 22 10.0
e 19 81 10.0
e 19 20 9.0
e 19 259 79.0
e 20 115 5.0
e 20 120 1.0
e 21 19 2.0
e 21 17 1.0
e 22 214 38.0
e 22 152 7.0
e 22 238 1.0
e 22 163 10.0
e 23 290 1.0
e 23 261 4.0
e 24 78 1.0
e 25 3 10.0
e 25 168 1.0
e 25 8 4.0
e 25 285 4.0
e 25 241 24.0
e 26 39 1.0
e 26 45 1.0
e 27 144 53.0
e 27 318 3.0
e 27 29 32.0
e 27 199 8.0
e 27 40 82.0
e 27 274 63.0
e 27 171 33.0
e 27 294 71.0
e 27 299 65.0
e 27 103 66.0
e 27 95 52.0
e 27 253 22.0
e 27 108 83.0
e 27 188 38.0
e 27 99 70.0
e 27 136 16.0
e 27 265 60.0
e 27 137 59.0
e 27 32 74.0
e 27 172 88.0
e 27 30 77.0
e 27 157 34.0
e 27 119 7.0
e 27 12 100.0
e 27 214 78.0
e 27 298 27.0
e 27 107 4.0
e 27 300 99.0
e 27 195 42.0
e 27 0 17.0
e 27 271 51.0
e 27 225 11.0
e 27 257 39.0
e 27 114 53.0
e 27 304 31.0
e 27 35 22.0
e 27 33 49.0
e 28 72 1.0
e 29 230 39.0
e 29 192 82.0
e 29 127 50.0
e 29 165 9.0
e 29 309 21.0
e 29 39 35.0
e 29 281 47.0
e 29 108 27.0
e 29 91 31.0
e 29 79 14.0
e 29 194 14.0
e 29 104 20.0
e 29 249 11.0
e 29 62 8.0
e 29 12 80.0
e 29 247 39.0
e 29 316 26.0
e 29 132 9.0
e 31 203 1.0
e 31 230 12.0
e 31 166 8.0
e 31 239 11.0
e 31 220 11.0
e 33 193 1.0
e 33 250 1.0
e 34 48 4.0
e 34 155 1.0
e 35 87 4.0
e 36 251 7.0
e 36 65 1.0
e 37 211 1.0
e 37 13 4.0
e 38 130 20.0
e 41 245 1.0
e 41 307 12.0
e 42 60 10.0
e 42 126 10.0
e 42 311 12.0
e 42 231 2.0
e 42 304 4.0
e 43 162 6.0
e 43 27 76.0
e 44 154 2.0
e 44 39 1.0
e 45 106 21.0
e 46 155 3.0
e 46 28 1.0
e 46 101 9.0
e 46 109 13.0
e 46 30 9.0
e 46 105 23.0
e 46 288 21.0
e 46 175 3.0
e 46 247 3.0
e 47 262 7.0
e 47 7 6.0
e 47 53 8.0
e 47 236 61.0
e 47 123 4.0
e 48 29 49.0
e 48 315 3.0
e 49 149 1.0
e 49 52 5.0
e 49 244 4.0
e 50 116 4.0
e 50 6 6.0
e 50 40 2.0
e 51 265 86.0
e 52 87 1.0
e 53 297 29.0
e 53 94 80.0
e 53 55 96.0
e 53 240 53.0
e 53 35 13.0
e 53 104 47.0
e 53 69 49.0
e 53 252 20.0
e 53 186 35.0
e 53 265 36.0
e 53 219 78.0
e 53 277 13.0
e 53 234 28.0
e 53 77 52.0
e 53 86 96.0
e 53 305 90.0
e 53 10 26.0
e 53 231 74.0
e 53 220 62.0
e 53 2 40.0
e 53 95 63.0
e 53 230 45.0
e 53 194 68.0
e 53 187 11.0
e 53 156 74.0
e 53 21 7.0
e 53 62 1.0
e 53 78 20.0
e 53 112 92.0
e 53 311 57.0
e 53 163 74.0
e 53 184 80.0
e 53 130 35.0
e 53 221 72.0
e 53 18 21.0
e 53 39 87.0
e 54 77 5.0
e 54 159 1.0
e 54 240 2.0
e 55 127 78.0
e 55 210 92.0
e 55 36 29.0
e 55 131 15.0
e 55 200 10.0
e 55 233 47.0
e 55 10 51.0
e 55 69 50.0
e 55 246 73.0
e 55 104 72.0
e 55 256 10.0
e 55 231 49.0
e 55 228 78.0
e 55 114 39.0
e 55 224 38.0
e 55 276 34.0
e 55 94 43.0
e 55 245 17.0
e 55 6 16.0
e 55 37 16.0
e 55 303 23.0
e 55 282 55.0
e 55 165 97.0
e 55 121 59.0
e 55 19 80.0
e 55 76 49.0
e 55 207 53.0
e 55 177 56.0
e 55 33 47.0
e 55 109 91.0
e 55 230 71.0
e 55 167 94.0
e 55 301 48.0
e 55 54 58.0
e 55 118 2.0
e 55 174 49.0
e 56 286 1.0
e 56 306 10.0
e 57 74 4.0
e 58 159 3.0
e 58 99 1.0
e 59 46 24.0
e 59 292 20.0
e 59 238 6.0
e 59 251 16.0
e 59 271 15.0
e 59 241 21.0
e 59 109 16.0
e 59 97 15.0
e 59 177 24.0
e 59 134 13.0
e 60 261 5.0
e 63 5 1.0
e 63 19 12.0
e 64 177 5.0
e 66 44 1.0
e 66 17 2.0
e 67 132 4.0
e 67 244 1.0
e 67 55 38.0
e 68 284 2.0
e 68 292 2.0
e 70 230 1.0
e 70 224 2.0
e 71 193 1.0
e 71 241 4.0
e 71 317 11.0
e 72 48 3.0
e 73 317 11.0
e 73 257 12.0
e 74 191 18.0
e 74 179 3.0
e 75 314 2.0
e 75 212 1.0
e 76 42 10.0
e 79 317 1.0
e 80 29 3.0
e 80 294 2.0
e 81 194 1.0
e 81 306 9.0
e 82 97 1.0
e 82 176 1.0
e 83 65 6.0
e 83 36 2.0
e 83 75 5.0
e 84 210 1.0
e 85 100 5.0
e 85 201 20.0
e 85 43 5.0
e 86 249 3.0
e 86 225 94.0
e 86 145 48.0
e 86 69 3.0
e 88 56 2.0
e 89 293 2.0
e 89 151 2.0
e 90 236 81.0
e 90 280 5.0
e 90 268 5.0
e 91 4 1.0
e 92 301 1.0
e 92 12 47.0
e 92 112 3.0
e 93 171 47.0
e 93 250 6.0
e 96 88 3.0
e 96 298 2.0
e 97 51 1.0
e 98 175 4.0
e 98 231 7.0
e 100 295 6.0
e 100 159 2.0
e 101 284 1.0
e 102 90 5.0
e 102 224 7.0
e 102 251 15.0
e 102 197 8.0
e 102 83 1.0
e 103 99 22.0
e 103 239 20.0
e 103 158 20.0
e 103 164 16.0
e 103 24 23.0
e 103 294 15.0
e 103 171 9.0
e 103 98 10.0
e 103 8 18.0
e 104 25 1.0
e 105 74 3.0
e 106 220 24.0
e 106 144 22.0
e 106 201 91.0
e 106 21 22.0
e 106 306 11.0
e 106 80 25.0
e 106 59 7.0
e 106 41 22.0
e 107 260 1.0
e 107 23 1.0
e 110 202 1.0
e 110 134 2.0
e 111 191 10.0
e 111 125 3.0
e 111 134 12.0
e 111 271 2.0
e 111 199 3.0
e 113 161 5.0
e 113 308 6.0
e 115 190 2.0
e 116 92 5.0
e 117 94 1.0
e 117 61 1.0
e 118 44 2.0
e 118 180 2.0
e 120 162 3.0
e 121 27 64.0
e 122 6 1.0
e 122 25 10.0
e 123 198 1.0
e 124 56 13.0
e 124 7 36.0
e 124 221 27.0
e 124 26 1.0
e 124 236 3.0
e 124 15 29.0
e 124 134 14.0
e 124 12 35.0
e 124 64 34.0
e 124 24 19.0
e 124 114 5.0
e 124 275 34.0
e 124 119 37.0
e 124 100 37.0
e 124 77 3.0
e 124 255 46.0
e 124 57 1.0
e 124 178 13.0
e 124 220 39.0
e 125 208 1.0
e 126 71 4.0
e 126 173 3.0
e 127 23 40.0
e 127 133 38.0
e 127 37 45.0
e 127 147 35.0
e 127 191 48.0
e 127 160 67.0
e 127 202 87.0
e 127 74 3.0
e 127 206 5.0
e 127 300 62.0
e 127 82 91.0
e 127 304 51.0
e 127 203 88.0
e 127 144 38.0
e 127 248 3.0
e 127 90 99.0
e 127 143 82.0
e 127 95 52.0
e 127 26 59.0
e 127 165 87.0
e 127 227 45.0
e 127 49 20.0
e 127 288 63.0
e 127 44 95.0
e 127 199 44.0
e 127 59 40.0
e 127 69 76.0
e 127 170 30.0
e 127 278 22.0
e 127 53 70.0
e 127 292 27.0
e 127 190 32.0
e 127 54 76.0
e 127 155 49.0
e 127 100 91.0
e 128 101 1.0
e 128 162 7.0
e 128 35 2.0
e 129 112 1.0
e 129 193 1.0
e 130 232 7.0
e 130 16 21.0
e 130 5 13.0
e 130 230 10.0
e 130 154 8.0
e 130 192 96.0
e 130 188 22.0
e 131 219 1.0
e 133 14 5.0
e 133 15 1.0
e 135 9 7.0
e 135 140 2.0
e 135 144 21.0
e 135 128 24.0
e 135 76 5.0
e 135 245 12.0
e 135 165 6.0
e 135 190 10.0
e 135 261 12.0
e 135 149 2.0
e 136 280 2.0
e 137 194 1.0
e 138 95 1.0
e 138 238 1.0
e 139 141 1.0
e 139 140 1.0
e 140 113 1.0
e 141 37 6.0
e 141 242 5.0
e 141 13 7.0
e 141 178 10.0
e 142 207 1.0
e 142 196 3.0
e 145 59 33.0
e 145 38 17.0
e 145 60 6.0
e 145 217 38.0
e 145 270 74.0
e 145 222 5.0
e 145 248 31.0
e 145 199 45.0
e 145 134 74.0
e 145 143 62.0
e 145 262 6.0
e 145 7 5.0
e 145 123 59.0
e 145 205 40.0
e 145 2 5.0
e 145 149 29.0
e 145 0 2.0
e 145 99 95.0
e 145 20 68.0
e 145 97 52.0
e 145 95 99.0
e 145 51 21.0
e 145 281 16.0
e 145 312 42.0
e 145 287 71.0
e 145 58 66.0
e 145 42 55.0
e 145 221 96.0
e 145 87 93.0
e 145 285 92.0
e 145 74 50.0
e 145 72 16.0
e 145 252 57.0
e 145 195 64.0
e 145 43 40.0
e 145 253 88.0
e 146 262 1.0
e 146 153 1.0
e 147 82 1.0
e 148 299 3.0
e 148 14 8.0
e 148 257 8.0
e 148 196 6.0
e 148 9 5.0
e 150 127 96.0
e 150 303 5.0
e 151 185 1.0
e 152 226 12.0
e 153 142 2.0
e 153 24 1.0
e 154 214 93.0
e 157 161 1.0
e 158 174 2.0
e 162 89 11.0
e 162 156 9.0
e 164 43 5.0
e 164 3 2.0
e 166 231 76.0
e 168 40 1.0
e 168 196 2.0
e 169 143 4.0
e 169 118 3.0
e 169 194 7.0
e 171 217 41.0
e 171 146 82.0
e 171 25 66.0
e 171 3 58.0
e 171 131 72.0
e 171 183 71.0
e 171 197 15.0
e 171 159 46.0
e 171 207 11.0
e 171 68 72.0
e 171 122 47.0
e 171 107 100.0
e 171 82 77.0
e 171 14 37.0
e 171 223 94.0
e 171 134 31.0
e 171 278 58.0
e 171 108 15.0
e 171 98 27.0
e 171 42 54.0
e 171 109 69.0
e 171 179 97.0
e 171 10 14.0
e 171 83 93.0
e 171 38 66.0
e 171 75 94.0
e 171 286 78.0
e 171 55 63.0
e 171 62 60.0
e 171 231 51.0
e 171 117 80.0
e 171 77 20.0
e 171 178 54.0
e 171 165 42.0
e 173 223 1.0
e 174 47 11.0
e 175 269 45.0
e 176 278 4.0
e 181 131 1.0
e 182 272 1.0
e 182 16 8.0
e 182 239 8.0
e 183 138 2.0
e 184 234 1.0
e 185 178 1.0
e 186 68 1.0
e 187 69 1.0
e 188 105 3.0
e 189 77 1.0
e 189 2 1.0
e 191 285 21.0
e 191 315 9.0
e 191 68 7.0
e 191 228 12.0
e 191 48 18.0
e 191 125 21.0
e 191 93 23.0
e 192 165 80.0
e 192 219 17.0
e 192 272 84.0
e 192 200 7.0
e 192 34 11.0
e 192 78 28.0
e 192 303 90.0
e 192 222 20.0
e 192 266 37.0
e 192 255 60.0
e 192 315 81.0
e 192 114 92.0
e 192 136 84.0
e 192 21 21.0
e 192 82 47.0
e 192 141 95.0
e 192 201 5.0
e 192 168 59.0
e 192 39 6.0
e 192 147 75.0
e 192 209 78.0
e 192 267 71.0
e 192 83 65.0
e 192 277 20.0
e 192 11 72.0
e 192 7 70.0
e 192 90 92.0
e 192 216 23.0
e 192 248 39.0
e 192 15 31.0
e 192 237 94.0
e 192 22 19.0
e 192 32 1.0
e 192 89 17.0
e 198 303 1.0
e 200 259 77.0
e 200 303 91.0
e 200 304 30.0
e 200 294 30.0
e 200 209 40.0
e 200 108 5.0
e 200 84 52.0
e 200 124 88.0
e 200 269 10.0
e 200 123 61.0
e 200 257 89.0
e 200 189 10.0
e 200 314 57.0
e 200 214 88.0
e 200 210 93.0
e 200 23 100.0
e 200 203 20.0
e 200 15 15.0
e 200 112 65.0
e 200 204 16.0
e 200 286 38.0
e 200 181 97.0
e 200 291 56.0
e 200 244 98.0
e 200 310 30.0
e 200 174 10.0
e 200 265 35.0
e 200 26 71.0
e 200 67 62.0
e 200 91 9.0
e 200 176 4.0
e 200 155 94.0
e 200 300 30.0
e 200 159 71.0
e 200 160 57.0
e 201 114 25.0
e 201 25 4.0
e 201 116 94.0
e 201 137 91.0
e 201 95 1.0
e 201 242 72.0
e 201 33 57.0
e 201 107 80.0
e 201 11 19.0
e 201 280 38.0
e 201 316 16.0
e 201 74 19.0
e 201 246 10.0
e 201 251 78.0
e 201 315 34.0
e 201 0 26.0
e 201 105 54.0
e 201 109 5.0
e 201 223 18.0
e 201 308 9.0
e 201 193 37.0
e 201 253 14.0
e 201 245 85.0
e 201 305 49.0
e 201 150 48.0
e 201 317 78.0
e 201 288 31.0
e 201 4 47.0
e 201 99 58.0
e 201 23 60.0
e 201 2 68.0
e 201 265 59.0
e 201 197 30.0
e 201 7 24.0
e 203 16 11.0
e 203 78 1.0
e 205 181 11.0
e 205 259 77.0
e 205 38 2.0
e 205 236 12.0
e 205 165 20.0
e 205 107 50.0
e 205 37 15.0
e 205 131 49.0
e 205 36 49.0
e 205 8 74.0
e 205 164 94.0
e 205 311 42.0
e 205 86 94.0
e 205 166 44.0
e 205 153 54.0
e 205 224 21.0
e 205 290 96.0
e 205 4 7.0
e 205 249 76.0
e 205 299 20.0
e 205 243 85.0
e 205 146 56.0
e 205 230 76.0
e 205 117 14.0
e 205 111 45.0
e 205 272 23.0
e 205 182 27.0
e 205 167 28.0
e 205 19 49.0
e 205 284 97.0
e 205 303 71.0
e 205 147 93.0
e 205 118 2.0
e 205 69 42.0
e 205 260 58.0
e 205 43 22.0
e 206 263 2.0
e 208 185 1.0
e 209 308 57.0
e 209 18 63.0
e 209 22 64.0
e 209 115 12.0
e 209 278 99.0
e 209 37 50.0
e 209 242 71.0
e 209 163 66.0
e 209 19 51.0
e 209 28 80.0
e 209 234 71.0
e 209 303 81.0
e 209 39 76.0
e 209 199 26.0
e 209 182 52.0
e 209 291 21.0
e 209 183 63.0
e 209 198 45.0
e 209 231 55.0
e 209 47 83.0
e 209 52 22.0
e 209 175 30.0
e 209 116 38.0
e 209 306 16.0
e 209 305 25.0
e 209 268 33.0
e 209 154 68.0
e 209 228 65.0
e 209 178 21.0
e 209 126 78.0
e 209 146 79.0
e 209 195 59.0
e 209 25 90.0
e 209 117 5.0
e 209 159 69.0
e 211 102 4.0
e 212 143 1.0
e 213 286 6.0
e 213 36 1.0
e 214 310 66.0
e 214 30 17.0
e 214 318 75.0
e 214 164 69.0
e 214 199 76.0
e 214 274 32.0
e 214 66 59.0
e 214 5 19.0
e 214 42 16.0
e 214 11 66.0
e 214 127 52.0
e 214 171 81.0
e 214 60 68.0
e 214 126 36.0
e 214 183 97.0
e 214 156 20.0
e 214 169 79.0
e 214 157 92.0
e 214 244 10.0
e 214 264 69.0
e 214 282 19.0
e 214 275 44.0
e 214 287 18.0
e 214 256 1.0
e 214 207 53.0
e 214 238 79.0
e 214 32 77.0
e 214 180 5.0
e 214 225 86.0
e 214 317 6.0
e 214 41 80.0
e 214 295 30.0
e 214 213 72.0
e 215 81 1.0
e 215 26 1.0
e 215 27 96.0
e 216 53 69.0
e 218 68 1.0
e 218 277 5.0
e 223 300 5.0
e 225 155 12.0
e 225 186 99.0
e 225 38 69.0
e 225 61 86.0
e 225 103 69.0
e 225 264 35.0
e 225 302 84.0
e 225 274 25.0
e 225 4 52.0
e 225 96 4.0
e 225 236 17.0
e 225 66 2.0
e 225 42 3.0
e 225 231 61.0
e 225 44 64.0
e 225 33 76.0
e 225 233 30.0
e 225 125 81.0
e 225 150 72.0
e 225 286 31.0
e 225 259 68.0
e 225 207 81.0
e 225 217 62.0
e 225 24 61.0
e 225 208 90.0
e 225 226 43.0
e 225 32 69.0
e 225 119 41.0
e 225 88 5.0
e 225 76 93.0
e 225 26 86.0
e 225 72 91.0
e 225 145 57.0
e 225 67 76.0
e 226 52 8.0
e 226 129 12.0
e 226 285 3.0
e 227 108 1.0
e 227 71 3.0
e 229 153 1.0
e 229 308 3.0
e 229 73 10.0
e 229 219 12.0
e 231 315 84.0
e 231 212 18.0
e 231 4 54.0
e 231 301 87.0
e 231 217 18.0
e 231 190 16.0
e 231 162 74.0
e 231 103 55.0
e 231 234 68.0
e 231 136 73.0
e 231 191 100.0
e 231 95 14.0
e 231 104 41.0
e 231 59 29.0
e 231 2 82.0
e 231 96 7.0
e 231 219 78.0
e 231 144 21.0
e 231 147 97.0
e 231 181 34.0
e 231 298 34.0
e 231 10 46.0
e 231 70 4.0
e 231 148 93.0
e 231 122 55.0
e 231 244 70.0
e 231 223 56.0
e 232 230 1.0
e 235 303 12.0
e 235 123 10.0
e 235 78 2.0
e 235 69 3.0
e 235 81 9.0
e 236 278 80.0
e 236 192 42.0
e 236 169 24.0
e 236 318 14.0
e 236 135 46.0
e 236 263 69.0
e 236 102 20.0
e 236 144 20.0
e 236 312 76.0
e 236 275 74.0
e 236 223 7.0
e 236 301 59.0
e 236 303 48.0
e 236 315 21.0
e 236 88 100.0
e 236 132 62.0
e 236 197 67.0
e 236 191 28.0
e 236 298 79.0
e 236 62 89.0
e 236 179 48.0
e 236 170 17.0
e 236 243 17.0
e 236 115 95.0
e 236 193 87.0
e 236 71 95.0
e 236 201 69.0
e 236 242 8.0
e 236 196 67.0
e 236 238 68.0
e 236 180 80.0
e 236 203 58.0
e 237 84 6.0
e 237 90 3.0
e 237 296 7.0
e 237 104 7.0
e 239 66 5.0
e 239 28 9.0
e 240 16 10.0
e 241 23 12.0
e 241 43 20.0
e 241 233 1.0
e 241 251 9.0
e 241 7 18.0
e 241 122 12.0
e 241 227 8.0
e 243 179 5.0
e 243 76 4.0
e 243 286 1.0
e 246 58 2.0
e 247 95 18.0
e 247 199 9.0
e 247 36 19.0
e 247 238 14.0
e 247 223 24.0
e 247 112 14.0
e 247 159 17.0
e 247 183 14.0
e 250 51 2.0
e 251 28 10.0
e 251 282 5.0
e 251 155 2.0
e 251 67 20.0
e 252 293 1.0
e 254 166 3.0
e 254 37 10.0
e 254 160 12.0
e 254 154 10.0
e 254 83 5.0
e 256 120 1.0
e 257 269 79.0
e 258 267 4.0
e 258 169 4.0
e 259 106 53.0
e 259 53 92.0
e 259 27 19.0
e 259 187 35.0
e 259 25 60.0
e 259 110 20.0
e 259 245 70.0
e 259 16 72.0
e 259 212 27.0
e 259 279 78.0
e 259 235 20.0
e 259 80 44.0
e 259 33 35.0
e 259 252 54.0
e 259 64 25.0
e 259 15 6.0
e 259 227 23.0
e 259 268 17.0
e 259 313 93.0
e 259 126 31.0
e 259 40 74.0
e 259 289 36.0
e 259 107 35.0
e 259 45 68.0
e 259 267 14.0
e 259 275 97.0
e 259 314 92.0
e 259 228 31.0
e 259 203 59.0
e 259 148 80.0
e 259 26 69.0
e 259 92 91.0
e 259 44 95.0
e 265 137 32.0
e 265 10 90.0
e 265 124 23.0
e 265 264 54.0
e 265 288 70.0
e 265 240 66.0
e 265 136 9.0
e 265 117 29.0
e 265 88 68.0
e 265 0 5.0
e 265 130 97.0
e 265 164 81.0
e 265 311 74.0
e 265 172 50.0
e 265 107 24.0
e 265 308 78.0
e 265 75 66.0
e 265 310 21.0
e 265 42 11.0
e 265 121 76.0
e 265 194 59.0
e 265 89 77.0
e 265 266 72.0
e 265 233 85.0
e 265 280 32.0
e 265 161 58.0
e 265 273 69.0
e 265 277 99.0
e 265 68 2.0
e 265 169 61.0
e 265 14 60.0
e 265 207 75.0
e 266 17 5.0
e 266 42 9.0
e 266 191 4.0
e 268 178 41.0
e 268 172 19.0
e 268 106 38.0
e 268 75 31.0
e 268 190 1.0
e 268 244 10.0
e 268 151 32.0
e 268 195 19.0
e 268 58 36.0
e 268 240 46.0
e 268 123 14.0
e 268 152 49.0
e 268 289 34.0
e 268 280 13.0
e 268 19 38.0
e 269 140 44.0
e 269 142 20.0
e 269 167 15.0
e 269 123 11.0
e 269 40 90.0
e 269 176 12.0
e 269 125 70.0
e 269 134 57.0
e 269 139 71.0
e 269 141 71.0
e 269 296 74.0
e 269 62 49.0
e 269 318 35.0
e 269 4 85.0
e 269 39 41.0
e 269 82 47.0
e 269 57 22.0
e 269 145 67.0
e 269 278 41.0
e 269 266 63.0
e 269 16 94.0
e 269 210 26.0
e 269 270 69.0
e 269 135 24.0
e 269 151 89.0
e 269 87 10.0
e 269 253 33.0
e 269 98 2.0
e 269 214 25.0
e 269 120 69.0
e 269 268 65.0
e 269 58 78.0
e 269 234 9.0
e 271 233 6.0
e 271 146 10.0
e 273 123 63.0
e 273 44 58.0
e 273 295 83.0
e 273 25 77.0
e 273 124 83.0
e 273 27 45.0
e 273 240 32.0
e 273 212 14.0
e 273 12 18.0
e 273 281 86.0
e 273 145 60.0
e 273 90 49.0
e 273 283 97.0
e 273 162 64.0
e 273 216 4.0
e 273 308 71.0
e 273 106 90.0
e 273 62 32.0
e 273 303 86.0
e 273 63 63.0
e 273 180 77.0
e 273 291 85.0
e 273 161 85.0
e 273 166 31.0
e 273 284 71.0
e 273 174 18.0
e 273 191 72.0
e 273 69 46.0
e 273 112 32.0
e 273 102 51.0
e 273 45 58.0
e 273 163 82.0
e 273 97 80.0
e 273 274 84.0
e 273 248 68.0
e 273 203 74.0
e 276 193 2.0
e 279 144 2.0
e 283 123 2.0
e 285 315 1.0
e 287 82 3.0
e 287 202 3.0
e 287 115 11.0
e 296 264 5.0
e 297 112 3.0
e 297 189 1.0
e 302 57 1.0
e 307 253 5.0
e 307 138 9.0
e 307 250 10.0
e 311 213 1.0
e 312 180 6.0
e 312 88 8.0
e 312 30 24.0
e 312 150 14.0
e 312 166 11.0
e 312 242 12.0
e 312 83 1.0
e 313 48 3.0
e 316 317 7.0
e 316 209 88.0
e 316 197 21.0
e 316 135 20.0
e 316 143 14.0
e 316 27 26.0
e 316 294 1.0
e 316 196 1.0
e 319 39 1.0
e 319 49 4.0
